100 153238
61 1 59 71 17 44 52 47 48 16 45 41 33 53 79 28 99 51 85 26 86 88 10 24 50 34 27 60 37 74 65 72 5 70 19 39 56 54 15 30 38 63 20 36 91 84 90 35 87 13 7 80 75 55 11 22 94 23 4 31 81 32 73 8 69 97 14 42 58 6 100 18 2 92 64 82 12 25 93 3 29 21 78 68 43 89 96 49 76 40 46 67 77 66 57 62 95 98 83 9 
